min

obj:

+50 x1
+50 x2
+50 x3
+50 x4
+50 x6
+50 x7
+50 x8
+50 x9
+50 x11
+50 x12
+50 x13
+50 x14
+50 x16
+50 x17
+50 x18
+50 x19
+50 x21
+50 x22
+50 x23
+50 x24
+50 x26
+50 x27
+50 x28
+50 x29
+50 x31
+50 x32
+50 x33
+50 x34
+50 x36
+50 x37
+50 x38
+50 x39
+50 x41
+50 x42
+50 x43
+50 x44
+50 x46
+50 x47
+50 x48
+50 x49
+50 x51
+50 x52
+50 x53
+50 x54
+50 x56
+50 x57
+50 x58
+50 x59
+50 x61
+50 x62
+50 x63
+50 x64
+50 x66
+50 x67
+50 x68
+50 x69
+50 x71
+50 x72
+50 x73
+50 x74
+50 x76
+50 x77
+50 x78
+50 x79
+50 x81
+50 x82
+50 x83
+50 x84
+50 x86
+50 x87
+50 x88
+50 x89
+50 x91
+50 x92
+50 x93
+50 x94
+50 x96
+50 x97
+50 x98
+50 x99
+50 x101
+50 x102
+50 x103
+50 x104
+50 x106
+50 x107
+50 x108
+50 x109
+50 x111
+50 x112
+50 x113
+50 x114
+50 x116
+50 x117
+50 x118
+50 x119
+5 x193
+5 x195
+5 x197
+5 x199
+5 x201
+5 x203
+5 x205
+5 x207
+5 x209
+5 x211
+5 x213
+5 x215
+5 x217
+5 x219
+5 x221
+5 x223
+5 x225
+5 x227
+5 x229
+5 x231
+5 x233
+5 x235
+5 x237
+5 x239


s.t.

c0:
+1 x0
>= -0

c1:
+1 x1
>= -0

c2:
+1 x2
>= -0

c3:
+1 x3
>= -0

c4:
+1 x4
>= -0

c5:
+1 x5
>= -0

c6:
+1 x6
>= -0

c7:
+1 x7
>= -0

c8:
+1 x8
>= -0

c9:
+1 x9
>= -0

c10:
+1 x10
>= -0

c11:
+1 x11
>= -0

c12:
+1 x12
>= -0

c13:
+1 x13
>= -0

c14:
+1 x14
>= -0

c15:
+1 x15
>= -0

c16:
+1 x16
>= -0

c17:
+1 x17
>= -0

c18:
+1 x18
>= -0

c19:
+1 x19
>= -0

c20:
+1 x20
>= -0

c21:
+1 x21
>= -0

c22:
+1 x22
>= -0

c23:
+1 x23
>= -0

c24:
+1 x24
>= -0

c25:
+1 x25
>= -0

c26:
+1 x26
>= -0

c27:
+1 x27
>= -0

c28:
+1 x28
>= -0

c29:
+1 x29
>= -0

c30:
+1 x30
>= -0

c31:
+1 x31
>= -0

c32:
+1 x32
>= -0

c33:
+1 x33
>= -0

c34:
+1 x34
>= -0

c35:
+1 x35
>= -0

c36:
+1 x36
>= -0

c37:
+1 x37
>= -0

c38:
+1 x38
>= -0

c39:
+1 x39
>= -0

c40:
+1 x40
>= -0

c41:
+1 x41
>= -0

c42:
+1 x42
>= -0

c43:
+1 x43
>= -0

c44:
+1 x44
>= -0

c45:
+1 x45
>= -0

c46:
+1 x46
>= -0

c47:
+1 x47
>= -0

c48:
+1 x48
>= -0

c49:
+1 x49
>= -0

c50:
+1 x50
>= -0

c51:
+1 x51
>= -0

c52:
+1 x52
>= -0

c53:
+1 x53
>= -0

c54:
+1 x54
>= -0

c55:
+1 x55
>= -0

c56:
+1 x56
>= -0

c57:
+1 x57
>= -0

c58:
+1 x58
>= -0

c59:
+1 x59
>= -0

c60:
+1 x60
>= -0

c61:
+1 x61
>= -0

c62:
+1 x62
>= -0

c63:
+1 x63
>= -0

c64:
+1 x64
>= -0

c65:
+1 x65
>= -0

c66:
+1 x66
>= -0

c67:
+1 x67
>= -0

c68:
+1 x68
>= -0

c69:
+1 x69
>= -0

c70:
+1 x70
>= -0

c71:
+1 x71
>= -0

c72:
+1 x72
>= -0

c73:
+1 x73
>= -0

c74:
+1 x74
>= -0

c75:
+1 x75
>= -0

c76:
+1 x76
>= -0

c77:
+1 x77
>= -0

c78:
+1 x78
>= -0

c79:
+1 x79
>= -0

c80:
+1 x80
>= -0

c81:
+1 x81
>= -0

c82:
+1 x82
>= -0

c83:
+1 x83
>= -0

c84:
+1 x84
>= -0

c85:
+1 x85
>= -0

c86:
+1 x86
>= -0

c87:
+1 x87
>= -0

c88:
+1 x88
>= -0

c89:
+1 x89
>= -0

c90:
+1 x90
>= -0

c91:
+1 x91
>= -0

c92:
+1 x92
>= -0

c93:
+1 x93
>= -0

c94:
+1 x94
>= -0

c95:
+1 x95
>= -0

c96:
+1 x96
>= -0

c97:
+1 x97
>= -0

c98:
+1 x98
>= -0

c99:
+1 x99
>= -0

c100:
+1 x100
>= -0

c101:
+1 x101
>= -0

c102:
+1 x102
>= -0

c103:
+1 x103
>= -0

c104:
+1 x104
>= -0

c105:
+1 x105
>= -0

c106:
+1 x106
>= -0

c107:
+1 x107
>= -0

c108:
+1 x108
>= -0

c109:
+1 x109
>= -0

c110:
+1 x110
>= -0

c111:
+1 x111
>= -0

c112:
+1 x112
>= -0

c113:
+1 x113
>= -0

c114:
+1 x114
>= -0

c115:
+1 x115
>= -0

c116:
+1 x116
>= -0

c117:
+1 x117
>= -0

c118:
+1 x118
>= -0

c119:
+1 x119
>= -0
c120:
+1 x0
<= -0

c121:
+1 x1
<= +500

c122:
+1 x2
<= +500

c123:
+1 x3
<= +500

c124:
+1 x4
<= +1000

c125:
+1 x5
<= -0

c126:
+1 x6
<= +500

c127:
+1 x7
<= +500

c128:
+1 x8
<= +500

c129:
+1 x9
<= +1000

c130:
+1 x10
<= -0

c131:
+1 x11
<= +500

c132:
+1 x12
<= +500

c133:
+1 x13
<= +500

c134:
+1 x14
<= +1000

c135:
+1 x15
<= -0

c136:
+1 x16
<= +500

c137:
+1 x17
<= +500

c138:
+1 x18
<= +500

c139:
+1 x19
<= +1000

c140:
+1 x20
<= -0

c141:
+1 x21
<= +500

c142:
+1 x22
<= +500

c143:
+1 x23
<= +500

c144:
+1 x24
<= +1000

c145:
+1 x25
<= -0

c146:
+1 x26
<= +500

c147:
+1 x27
<= +500

c148:
+1 x28
<= +500

c149:
+1 x29
<= +1000

c150:
+1 x30
<= +30

c151:
+1 x31
<= +500

c152:
+1 x32
<= +500

c153:
+1 x33
<= +500

c154:
+1 x34
<= +1000

c155:
+1 x35
<= +75

c156:
+1 x36
<= +500

c157:
+1 x37
<= +500

c158:
+1 x38
<= +500

c159:
+1 x39
<= +1000

c160:
+1 x40
<= +135

c161:
+1 x41
<= +500

c162:
+1 x42
<= +500

c163:
+1 x43
<= +500

c164:
+1 x44
<= +1000

c165:
+1 x45
<= +195

c166:
+1 x46
<= +500

c167:
+1 x47
<= +500

c168:
+1 x48
<= +500

c169:
+1 x49
<= +1000

c170:
+1 x50
<= +255

c171:
+1 x51
<= +500

c172:
+1 x52
<= +500

c173:
+1 x53
<= +500

c174:
+1 x54
<= +1000

c175:
+1 x55
<= +300

c176:
+1 x56
<= +500

c177:
+1 x57
<= +500

c178:
+1 x58
<= +500

c179:
+1 x59
<= +1000

c180:
+1 x60
<= +300

c181:
+1 x61
<= +500

c182:
+1 x62
<= +500

c183:
+1 x63
<= +500

c184:
+1 x64
<= +1000

c185:
+1 x65
<= +270

c186:
+1 x66
<= +500

c187:
+1 x67
<= +500

c188:
+1 x68
<= +500

c189:
+1 x69
<= +1000

c190:
+1 x70
<= +225

c191:
+1 x71
<= +500

c192:
+1 x72
<= +500

c193:
+1 x73
<= +500

c194:
+1 x74
<= +1000

c195:
+1 x75
<= +165

c196:
+1 x76
<= +500

c197:
+1 x77
<= +500

c198:
+1 x78
<= +500

c199:
+1 x79
<= +1000

c200:
+1 x80
<= +105

c201:
+1 x81
<= +500

c202:
+1 x82
<= +500

c203:
+1 x83
<= +500

c204:
+1 x84
<= +1000

c205:
+1 x85
<= +45

c206:
+1 x86
<= +500

c207:
+1 x87
<= +500

c208:
+1 x88
<= +500

c209:
+1 x89
<= +1000

c210:
+1 x90
<= -0

c211:
+1 x91
<= +500

c212:
+1 x92
<= +500

c213:
+1 x93
<= +500

c214:
+1 x94
<= +1000

c215:
+1 x95
<= -0

c216:
+1 x96
<= +500

c217:
+1 x97
<= +500

c218:
+1 x98
<= +500

c219:
+1 x99
<= +1000

c220:
+1 x100
<= -0

c221:
+1 x101
<= +500

c222:
+1 x102
<= +500

c223:
+1 x103
<= +500

c224:
+1 x104
<= +1000

c225:
+1 x105
<= -0

c226:
+1 x106
<= +500

c227:
+1 x107
<= +500

c228:
+1 x108
<= +500

c229:
+1 x109
<= +1000

c230:
+1 x110
<= -0

c231:
+1 x111
<= +500

c232:
+1 x112
<= +500

c233:
+1 x113
<= +500

c234:
+1 x114
<= +1000

c235:
+1 x115
<= -0

c236:
+1 x116
<= +500

c237:
+1 x117
<= +500

c238:
+1 x118
<= +500

c239:
+1 x119
<= +1000
c240:
+1 x120
>= -200

c241:
+1 x121
>= -200

c242:
+1 x122
>= -150

c243:
+1 x123
>= -200

c244:
+1 x124
>= -200

c245:
+1 x125
>= -150

c246:
+1 x126
>= -200

c247:
+1 x127
>= -200

c248:
+1 x128
>= -150

c249:
+1 x129
>= -200

c250:
+1 x130
>= -200

c251:
+1 x131
>= -150

c252:
+1 x132
>= -200

c253:
+1 x133
>= -200

c254:
+1 x134
>= -150

c255:
+1 x135
>= -200

c256:
+1 x136
>= -200

c257:
+1 x137
>= -150

c258:
+1 x138
>= -200

c259:
+1 x139
>= -200

c260:
+1 x140
>= -150

c261:
+1 x141
>= -200

c262:
+1 x142
>= -200

c263:
+1 x143
>= -150

c264:
+1 x144
>= -200

c265:
+1 x145
>= -200

c266:
+1 x146
>= -150

c267:
+1 x147
>= -200

c268:
+1 x148
>= -200

c269:
+1 x149
>= -150

c270:
+1 x150
>= -200

c271:
+1 x151
>= -200

c272:
+1 x152
>= -150

c273:
+1 x153
>= -200

c274:
+1 x154
>= -200

c275:
+1 x155
>= -150

c276:
+1 x156
>= -200

c277:
+1 x157
>= -200

c278:
+1 x158
>= -150

c279:
+1 x159
>= -200

c280:
+1 x160
>= -200

c281:
+1 x161
>= -150

c282:
+1 x162
>= -200

c283:
+1 x163
>= -200

c284:
+1 x164
>= -150

c285:
+1 x165
>= -200

c286:
+1 x166
>= -200

c287:
+1 x167
>= -150

c288:
+1 x168
>= -200

c289:
+1 x169
>= -200

c290:
+1 x170
>= -150

c291:
+1 x171
>= -200

c292:
+1 x172
>= -200

c293:
+1 x173
>= -150

c294:
+1 x174
>= -200

c295:
+1 x175
>= -200

c296:
+1 x176
>= -150

c297:
+1 x177
>= -200

c298:
+1 x178
>= -200

c299:
+1 x179
>= -150

c300:
+1 x180
>= -200

c301:
+1 x181
>= -200

c302:
+1 x182
>= -150

c303:
+1 x183
>= -200

c304:
+1 x184
>= -200

c305:
+1 x185
>= -150

c306:
+1 x186
>= -200

c307:
+1 x187
>= -200

c308:
+1 x188
>= -150

c309:
+1 x189
>= -200

c310:
+1 x190
>= -200

c311:
+1 x191
>= -150
c312:
+1 x120
<= +200

c313:
+1 x121
<= +200

c314:
+1 x122
<= +150

c315:
+1 x123
<= +200

c316:
+1 x124
<= +200

c317:
+1 x125
<= +150

c318:
+1 x126
<= +200

c319:
+1 x127
<= +200

c320:
+1 x128
<= +150

c321:
+1 x129
<= +200

c322:
+1 x130
<= +200

c323:
+1 x131
<= +150

c324:
+1 x132
<= +200

c325:
+1 x133
<= +200

c326:
+1 x134
<= +150

c327:
+1 x135
<= +200

c328:
+1 x136
<= +200

c329:
+1 x137
<= +150

c330:
+1 x138
<= +200

c331:
+1 x139
<= +200

c332:
+1 x140
<= +150

c333:
+1 x141
<= +200

c334:
+1 x142
<= +200

c335:
+1 x143
<= +150

c336:
+1 x144
<= +200

c337:
+1 x145
<= +200

c338:
+1 x146
<= +150

c339:
+1 x147
<= +200

c340:
+1 x148
<= +200

c341:
+1 x149
<= +150

c342:
+1 x150
<= +200

c343:
+1 x151
<= +200

c344:
+1 x152
<= +150

c345:
+1 x153
<= +200

c346:
+1 x154
<= +200

c347:
+1 x155
<= +150

c348:
+1 x156
<= +200

c349:
+1 x157
<= +200

c350:
+1 x158
<= +150

c351:
+1 x159
<= +200

c352:
+1 x160
<= +200

c353:
+1 x161
<= +150

c354:
+1 x162
<= +200

c355:
+1 x163
<= +200

c356:
+1 x164
<= +150

c357:
+1 x165
<= +200

c358:
+1 x166
<= +200

c359:
+1 x167
<= +150

c360:
+1 x168
<= +200

c361:
+1 x169
<= +200

c362:
+1 x170
<= +150

c363:
+1 x171
<= +200

c364:
+1 x172
<= +200

c365:
+1 x173
<= +150

c366:
+1 x174
<= +200

c367:
+1 x175
<= +200

c368:
+1 x176
<= +150

c369:
+1 x177
<= +200

c370:
+1 x178
<= +200

c371:
+1 x179
<= +150

c372:
+1 x180
<= +200

c373:
+1 x181
<= +200

c374:
+1 x182
<= +150

c375:
+1 x183
<= +200

c376:
+1 x184
<= +200

c377:
+1 x185
<= +150

c378:
+1 x186
<= +200

c379:
+1 x187
<= +200

c380:
+1 x188
<= +150

c381:
+1 x189
<= +200

c382:
+1 x190
<= +200

c383:
+1 x191
<= +150
c384:
+1 x192
>= -0

c385:
+1 x193
>= -0

c386:
+1 x194
>= -0

c387:
+1 x195
>= -0

c388:
+1 x196
>= -0

c389:
+1 x197
>= -0

c390:
+1 x198
>= -0

c391:
+1 x199
>= -0

c392:
+1 x200
>= -0

c393:
+1 x201
>= -0

c394:
+1 x202
>= -0

c395:
+1 x203
>= -0

c396:
+1 x204
>= -0

c397:
+1 x205
>= -0

c398:
+1 x206
>= -0

c399:
+1 x207
>= -0

c400:
+1 x208
>= -0

c401:
+1 x209
>= -0

c402:
+1 x210
>= -0

c403:
+1 x211
>= -0

c404:
+1 x212
>= -0

c405:
+1 x213
>= -0

c406:
+1 x214
>= -0

c407:
+1 x215
>= -0

c408:
+1 x216
>= -0

c409:
+1 x217
>= -0

c410:
+1 x218
>= -0

c411:
+1 x219
>= -0

c412:
+1 x220
>= -0

c413:
+1 x221
>= -0

c414:
+1 x222
>= -0

c415:
+1 x223
>= -0

c416:
+1 x224
>= -0

c417:
+1 x225
>= -0

c418:
+1 x226
>= -0

c419:
+1 x227
>= -0

c420:
+1 x228
>= -0

c421:
+1 x229
>= -0

c422:
+1 x230
>= -0

c423:
+1 x231
>= -0

c424:
+1 x232
>= -0

c425:
+1 x233
>= -0

c426:
+1 x234
>= -0

c427:
+1 x235
>= -0

c428:
+1 x236
>= -0

c429:
+1 x237
>= -0

c430:
+1 x238
>= -0

c431:
+1 x239
>= -0
c432:
+1 x192
<= +300

c433:
+1 x193
<= +300

c434:
+1 x194
<= +300

c435:
+1 x195
<= +300

c436:
+1 x196
<= +300

c437:
+1 x197
<= +300

c438:
+1 x198
<= +300

c439:
+1 x199
<= +300

c440:
+1 x200
<= +300

c441:
+1 x201
<= +300

c442:
+1 x202
<= +300

c443:
+1 x203
<= +300

c444:
+1 x204
<= +300

c445:
+1 x205
<= +300

c446:
+1 x206
<= +300

c447:
+1 x207
<= +300

c448:
+1 x208
<= +300

c449:
+1 x209
<= +300

c450:
+1 x210
<= +300

c451:
+1 x211
<= +300

c452:
+1 x212
<= +300

c453:
+1 x213
<= +300

c454:
+1 x214
<= +300

c455:
+1 x215
<= +300

c456:
+1 x216
<= +300

c457:
+1 x217
<= +300

c458:
+1 x218
<= +300

c459:
+1 x219
<= +300

c460:
+1 x220
<= +300

c461:
+1 x221
<= +300

c462:
+1 x222
<= +300

c463:
+1 x223
<= +300

c464:
+1 x224
<= +300

c465:
+1 x225
<= +300

c466:
+1 x226
<= +300

c467:
+1 x227
<= +300

c468:
+1 x228
<= +300

c469:
+1 x229
<= +300

c470:
+1 x230
<= +300

c471:
+1 x231
<= +300

c472:
+1 x232
<= +300

c473:
+1 x233
<= +300

c474:
+1 x234
<= +300

c475:
+1 x235
<= +300

c476:
+1 x236
<= +300

c477:
+1 x237
<= +300

c478:
+1 x238
<= +300

c479:
+1 x239
<= +300
c480:
+1 x1
-1 x120
+1 x122
= +150

c481:
+1 x6
-1 x123
+1 x125
= +140

c482:
+1 x11
-1 x126
+1 x128
= +135

c483:
+1 x16
-1 x129
+1 x131
= +130

c484:
+1 x21
-1 x132
+1 x134
= +130

c485:
+1 x26
-1 x135
+1 x137
= +140

c486:
+1 x31
-1 x138
+1 x140
= +160

c487:
+1 x36
-1 x141
+1 x143
= +180

c488:
+1 x41
-1 x144
+1 x146
= +200

c489:
+1 x46
-1 x147
+1 x149
= +210

c490:
+1 x51
-1 x150
+1 x152
= +220

c491:
+1 x56
-1 x153
+1 x155
= +220

c492:
+1 x61
-1 x156
+1 x158
= +210

c493:
+1 x66
-1 x159
+1 x161
= +210

c494:
+1 x71
-1 x162
+1 x164
= +220

c495:
+1 x76
-1 x165
+1 x167
= +230

c496:
+1 x81
-1 x168
+1 x170
= +250

c497:
+1 x86
-1 x171
+1 x173
= +270

c498:
+1 x91
-1 x174
+1 x176
= +280

c499:
+1 x96
-1 x177
+1 x179
= +270

c500:
+1 x101
-1 x180
+1 x182
= +250

c501:
+1 x106
-1 x183
+1 x185
= +220

c502:
+1 x111
-1 x186
+1 x188
= +190

c503:
+1 x116
-1 x189
+1 x191
= +170

c504:
+1 x2
+1 x120
-1 x121
+0.4 x192
= +100

c505:
+1 x7
+1 x123
-1 x124
+0.4 x194
= +95

c506:
+1 x12
+1 x126
-1 x127
+0.4 x196
= +90

c507:
+1 x17
+1 x129
-1 x130
+0.4 x198
= +90

c508:
+1 x22
+1 x132
-1 x133
+0.4 x200
= +90

c509:
+1 x27
+1 x135
-1 x136
+0.4 x202
= +100

c510:
+1 x32
+1 x138
-1 x139
+0.4 x204
= +110

c511:
+1 x37
+1 x141
-1 x142
+0.4 x206
= +120

c512:
+1 x42
+1 x144
-1 x145
+0.4 x208
= +130

c513:
+1 x47
+1 x147
-1 x148
+0.4 x210
= +140

c514:
+1 x52
+1 x150
-1 x151
+0.4 x212
= +145

c515:
+1 x57
+1 x153
-1 x154
+0.4 x214
= +150

c516:
+1 x62
+1 x156
-1 x157
+0.4 x216
= +145

c517:
+1 x67
+1 x159
-1 x160
+0.4 x218
= +145

c518:
+1 x72
+1 x162
-1 x163
+0.4 x220
= +150

c519:
+1 x77
+1 x165
-1 x166
+0.4 x222
= +155

c520:
+1 x82
+1 x168
-1 x169
+0.4 x224
= +160

c521:
+1 x87
+1 x171
-1 x172
+0.4 x226
= +170

c522:
+1 x92
+1 x174
-1 x175
+0.4 x228
= +175

c523:
+1 x97
+1 x177
-1 x178
+0.4 x230
= +170

c524:
+1 x102
+1 x180
-1 x181
+0.4 x232
= +155

c525:
+1 x107
+1 x183
-1 x184
+0.4 x234
= +140

c526:
+1 x112
+1 x186
-1 x187
+0.4 x236
= +120

c527:
+1 x117
+1 x189
-1 x190
+0.4 x238
= +110

c528:
+1 x0
+1 x3
+1 x121
-1 x122
= +200

c529:
+1 x5
+1 x8
+1 x124
-1 x125
= +190

c530:
+1 x10
+1 x13
+1 x127
-1 x128
= +185

c531:
+1 x15
+1 x18
+1 x130
-1 x131
= +180

c532:
+1 x20
+1 x23
+1 x133
-1 x134
= +180

c533:
+1 x25
+1 x28
+1 x136
-1 x137
= +190

c534:
+1 x30
+1 x33
+1 x139
-1 x140
= +210

c535:
+1 x35
+1 x38
+1 x142
-1 x143
= +230

c536:
+1 x40
+1 x43
+1 x145
-1 x146
= +250

c537:
+1 x45
+1 x48
+1 x148
-1 x149
= +270

c538:
+1 x50
+1 x53
+1 x151
-1 x152
= +280

c539:
+1 x55
+1 x58
+1 x154
-1 x155
= +290

c540:
+1 x60
+1 x63
+1 x157
-1 x158
= +290

c541:
+1 x65
+1 x68
+1 x160
-1 x161
= +280

c542:
+1 x70
+1 x73
+1 x163
-1 x164
= +270

c543:
+1 x75
+1 x78
+1 x166
-1 x167
= +280

c544:
+1 x80
+1 x83
+1 x169
-1 x170
= +290

c545:
+1 x85
+1 x88
+1 x172
-1 x173
= +300

c546:
+1 x90
+1 x93
+1 x175
-1 x176
= +310

c547:
+1 x95
+1 x98
+1 x178
-1 x179
= +300

c548:
+1 x100
+1 x103
+1 x181
-1 x182
= +280

c549:
+1 x105
+1 x108
+1 x184
-1 x185
= +260

c550:
+1 x110
+1 x113
+1 x187
-1 x188
= +230

c551:
+1 x115
+1 x118
+1 x190
-1 x191
= +210

c552:
+0.5 x192
+0.9 x193
= +180

c553:
+0.5 x194
+0.9 x195
= +180

c554:
+0.5 x196
+0.9 x197
= +180

c555:
+0.5 x198
+0.9 x199
= +180

c556:
+0.5 x200
+0.9 x201
= +180

c557:
+0.5 x202
+0.9 x203
= +180

c558:
+0.5 x204
+0.9 x205
= +170

c559:
+0.5 x206
+0.9 x207
= +160

c560:
+0.5 x208
+0.9 x209
= +150

c561:
+0.5 x210
+0.9 x211
= +140

c562:
+0.5 x212
+0.9 x213
= +130

c563:
+0.5 x214
+0.9 x215
= +120

c564:
+0.5 x216
+0.9 x217
= +120

c565:
+0.5 x218
+0.9 x219
= +120

c566:
+0.5 x220
+0.9 x221
= +130

c567:
+0.5 x222
+0.9 x223
= +140

c568:
+0.5 x224
+0.9 x225
= +150

c569:
+0.5 x226
+0.9 x227
= +160

c570:
+0.5 x228
+0.9 x229
= +170

c571:
+0.5 x230
+0.9 x231
= +180

c572:
+0.5 x232
+0.9 x233
= +190

c573:
+0.5 x234
+0.9 x235
= +190

c574:
+0.5 x236
+0.9 x237
= +190

c575:
+0.5 x238
+0.9 x239
= +190

c576:
+1 x4
-1 x192
-1 x193
= -0

c577:
+1 x9
-1 x194
-1 x195
= -0

c578:
+1 x14
-1 x196
-1 x197
= -0

c579:
+1 x19
-1 x198
-1 x199
= -0

c580:
+1 x24
-1 x200
-1 x201
= -0

c581:
+1 x29
-1 x202
-1 x203
= -0

c582:
+1 x34
-1 x204
-1 x205
= -0

c583:
+1 x39
-1 x206
-1 x207
= -0

c584:
+1 x44
-1 x208
-1 x209
= -0

c585:
+1 x49
-1 x210
-1 x211
= -0

c586:
+1 x54
-1 x212
-1 x213
= -0

c587:
+1 x59
-1 x214
-1 x215
= -0

c588:
+1 x64
-1 x216
-1 x217
= -0

c589:
+1 x69
-1 x218
-1 x219
= -0

c590:
+1 x74
-1 x220
-1 x221
= -0

c591:
+1 x79
-1 x222
-1 x223
= -0

c592:
+1 x84
-1 x224
-1 x225
= -0

c593:
+1 x89
-1 x226
-1 x227
= -0

c594:
+1 x94
-1 x228
-1 x229
= -0

c595:
+1 x99
-1 x230
-1 x231
= -0

c596:
+1 x104
-1 x232
-1 x233
= -0

c597:
+1 x109
-1 x234
-1 x235
= -0

c598:
+1 x114
-1 x236
-1 x237
= -0

c599:
+1 x119
-1 x238
-1 x239
= -0
c600:
+10000 x120
+10000 x121
+10000 x122
= -0

c601:
+10000 x123
+10000 x124
+10000 x125
= -0

c602:
+10000 x126
+10000 x127
+10000 x128
= -0

c603:
+10000 x129
+10000 x130
+10000 x131
= -0

c604:
+10000 x132
+10000 x133
+10000 x134
= -0

c605:
+10000 x135
+10000 x136
+10000 x137
= -0

c606:
+10000 x138
+10000 x139
+10000 x140
= -0

c607:
+10000 x141
+10000 x142
+10000 x143
= -0

c608:
+10000 x144
+10000 x145
+10000 x146
= -0

c609:
+10000 x147
+10000 x148
+10000 x149
= -0

c610:
+10000 x150
+10000 x151
+10000 x152
= -0

c611:
+10000 x153
+10000 x154
+10000 x155
= -0

c612:
+10000 x156
+10000 x157
+10000 x158
= -0

c613:
+10000 x159
+10000 x160
+10000 x161
= -0

c614:
+10000 x162
+10000 x163
+10000 x164
= -0

c615:
+10000 x165
+10000 x166
+10000 x167
= -0

c616:
+10000 x168
+10000 x169
+10000 x170
= -0

c617:
+10000 x171
+10000 x172
+10000 x173
= -0

c618:
+10000 x174
+10000 x175
+10000 x176
= -0

c619:
+10000 x177
+10000 x178
+10000 x179
= -0

c620:
+10000 x180
+10000 x181
+10000 x182
= -0

c621:
+10000 x183
+10000 x184
+10000 x185
= -0

c622:
+10000 x186
+10000 x187
+10000 x188
= -0

c623:
+10000 x189
+10000 x190
+10000 x191
= -0


bounds

-inf <= x0 <= +inf
-inf <= x1 <= +inf
-inf <= x2 <= +inf
-inf <= x3 <= +inf
-inf <= x4 <= +inf
-inf <= x5 <= +inf
-inf <= x6 <= +inf
-inf <= x7 <= +inf
-inf <= x8 <= +inf
-inf <= x9 <= +inf
-inf <= x10 <= +inf
-inf <= x11 <= +inf
-inf <= x12 <= +inf
-inf <= x13 <= +inf
-inf <= x14 <= +inf
-inf <= x15 <= +inf
-inf <= x16 <= +inf
-inf <= x17 <= +inf
-inf <= x18 <= +inf
-inf <= x19 <= +inf
-inf <= x20 <= +inf
-inf <= x21 <= +inf
-inf <= x22 <= +inf
-inf <= x23 <= +inf
-inf <= x24 <= +inf
-inf <= x25 <= +inf
-inf <= x26 <= +inf
-inf <= x27 <= +inf
-inf <= x28 <= +inf
-inf <= x29 <= +inf
-inf <= x30 <= +inf
-inf <= x31 <= +inf
-inf <= x32 <= +inf
-inf <= x33 <= +inf
-inf <= x34 <= +inf
-inf <= x35 <= +inf
-inf <= x36 <= +inf
-inf <= x37 <= +inf
-inf <= x38 <= +inf
-inf <= x39 <= +inf
-inf <= x40 <= +inf
-inf <= x41 <= +inf
-inf <= x42 <= +inf
-inf <= x43 <= +inf
-inf <= x44 <= +inf
-inf <= x45 <= +inf
-inf <= x46 <= +inf
-inf <= x47 <= +inf
-inf <= x48 <= +inf
-inf <= x49 <= +inf
-inf <= x50 <= +inf
-inf <= x51 <= +inf
-inf <= x52 <= +inf
-inf <= x53 <= +inf
-inf <= x54 <= +inf
-inf <= x55 <= +inf
-inf <= x56 <= +inf
-inf <= x57 <= +inf
-inf <= x58 <= +inf
-inf <= x59 <= +inf
-inf <= x60 <= +inf
-inf <= x61 <= +inf
-inf <= x62 <= +inf
-inf <= x63 <= +inf
-inf <= x64 <= +inf
-inf <= x65 <= +inf
-inf <= x66 <= +inf
-inf <= x67 <= +inf
-inf <= x68 <= +inf
-inf <= x69 <= +inf
-inf <= x70 <= +inf
-inf <= x71 <= +inf
-inf <= x72 <= +inf
-inf <= x73 <= +inf
-inf <= x74 <= +inf
-inf <= x75 <= +inf
-inf <= x76 <= +inf
-inf <= x77 <= +inf
-inf <= x78 <= +inf
-inf <= x79 <= +inf
-inf <= x80 <= +inf
-inf <= x81 <= +inf
-inf <= x82 <= +inf
-inf <= x83 <= +inf
-inf <= x84 <= +inf
-inf <= x85 <= +inf
-inf <= x86 <= +inf
-inf <= x87 <= +inf
-inf <= x88 <= +inf
-inf <= x89 <= +inf
-inf <= x90 <= +inf
-inf <= x91 <= +inf
-inf <= x92 <= +inf
-inf <= x93 <= +inf
-inf <= x94 <= +inf
-inf <= x95 <= +inf
-inf <= x96 <= +inf
-inf <= x97 <= +inf
-inf <= x98 <= +inf
-inf <= x99 <= +inf
-inf <= x100 <= +inf
-inf <= x101 <= +inf
-inf <= x102 <= +inf
-inf <= x103 <= +inf
-inf <= x104 <= +inf
-inf <= x105 <= +inf
-inf <= x106 <= +inf
-inf <= x107 <= +inf
-inf <= x108 <= +inf
-inf <= x109 <= +inf
-inf <= x110 <= +inf
-inf <= x111 <= +inf
-inf <= x112 <= +inf
-inf <= x113 <= +inf
-inf <= x114 <= +inf
-inf <= x115 <= +inf
-inf <= x116 <= +inf
-inf <= x117 <= +inf
-inf <= x118 <= +inf
-inf <= x119 <= +inf
-inf <= x120 <= +inf
-inf <= x121 <= +inf
-inf <= x122 <= +inf
-inf <= x123 <= +inf
-inf <= x124 <= +inf
-inf <= x125 <= +inf
-inf <= x126 <= +inf
-inf <= x127 <= +inf
-inf <= x128 <= +inf
-inf <= x129 <= +inf
-inf <= x130 <= +inf
-inf <= x131 <= +inf
-inf <= x132 <= +inf
-inf <= x133 <= +inf
-inf <= x134 <= +inf
-inf <= x135 <= +inf
-inf <= x136 <= +inf
-inf <= x137 <= +inf
-inf <= x138 <= +inf
-inf <= x139 <= +inf
-inf <= x140 <= +inf
-inf <= x141 <= +inf
-inf <= x142 <= +inf
-inf <= x143 <= +inf
-inf <= x144 <= +inf
-inf <= x145 <= +inf
-inf <= x146 <= +inf
-inf <= x147 <= +inf
-inf <= x148 <= +inf
-inf <= x149 <= +inf
-inf <= x150 <= +inf
-inf <= x151 <= +inf
-inf <= x152 <= +inf
-inf <= x153 <= +inf
-inf <= x154 <= +inf
-inf <= x155 <= +inf
-inf <= x156 <= +inf
-inf <= x157 <= +inf
-inf <= x158 <= +inf
-inf <= x159 <= +inf
-inf <= x160 <= +inf
-inf <= x161 <= +inf
-inf <= x162 <= +inf
-inf <= x163 <= +inf
-inf <= x164 <= +inf
-inf <= x165 <= +inf
-inf <= x166 <= +inf
-inf <= x167 <= +inf
-inf <= x168 <= +inf
-inf <= x169 <= +inf
-inf <= x170 <= +inf
-inf <= x171 <= +inf
-inf <= x172 <= +inf
-inf <= x173 <= +inf
-inf <= x174 <= +inf
-inf <= x175 <= +inf
-inf <= x176 <= +inf
-inf <= x177 <= +inf
-inf <= x178 <= +inf
-inf <= x179 <= +inf
-inf <= x180 <= +inf
-inf <= x181 <= +inf
-inf <= x182 <= +inf
-inf <= x183 <= +inf
-inf <= x184 <= +inf
-inf <= x185 <= +inf
-inf <= x186 <= +inf
-inf <= x187 <= +inf
-inf <= x188 <= +inf
-inf <= x189 <= +inf
-inf <= x190 <= +inf
-inf <= x191 <= +inf
-inf <= x192 <= +inf
-inf <= x193 <= +inf
-inf <= x194 <= +inf
-inf <= x195 <= +inf
-inf <= x196 <= +inf
-inf <= x197 <= +inf
-inf <= x198 <= +inf
-inf <= x199 <= +inf
-inf <= x200 <= +inf
-inf <= x201 <= +inf
-inf <= x202 <= +inf
-inf <= x203 <= +inf
-inf <= x204 <= +inf
-inf <= x205 <= +inf
-inf <= x206 <= +inf
-inf <= x207 <= +inf
-inf <= x208 <= +inf
-inf <= x209 <= +inf
-inf <= x210 <= +inf
-inf <= x211 <= +inf
-inf <= x212 <= +inf
-inf <= x213 <= +inf
-inf <= x214 <= +inf
-inf <= x215 <= +inf
-inf <= x216 <= +inf
-inf <= x217 <= +inf
-inf <= x218 <= +inf
-inf <= x219 <= +inf
-inf <= x220 <= +inf
-inf <= x221 <= +inf
-inf <= x222 <= +inf
-inf <= x223 <= +inf
-inf <= x224 <= +inf
-inf <= x225 <= +inf
-inf <= x226 <= +inf
-inf <= x227 <= +inf
-inf <= x228 <= +inf
-inf <= x229 <= +inf
-inf <= x230 <= +inf
-inf <= x231 <= +inf
-inf <= x232 <= +inf
-inf <= x233 <= +inf
-inf <= x234 <= +inf
-inf <= x235 <= +inf
-inf <= x236 <= +inf
-inf <= x237 <= +inf
-inf <= x238 <= +inf
-inf <= x239 <= +inf
end
