min

obj:

+3 x0
+4 x1
+3 x3
+4 x4
+3 x6
+4 x7
+3 x9
+4 x10
+3 x12
+4 x13
+3 x15
+4 x16
+3 x18
+4 x19
+3 x21
+4 x22
+3 x24
+4 x25
+3 x27
+4 x28
+3 x30
+4 x31
+3 x33
+4 x34
+3 x36
+4 x37
+3 x39
+4 x40
+3 x42
+4 x43
+3 x45
+4 x46
+3 x48
+4 x49
+3 x51
+4 x52
+3 x54
+4 x55
+3 x57
+4 x58
+3 x60
+4 x61
+3 x63
+4 x64
+3 x66
+4 x67
+3 x69
+4 x70


s.t.

c0:
+1 x0
>= +50

c1:
+1 x1
>= +100

c2:
+1 x2
>= -0

c3:
+1 x3
>= +50

c4:
+1 x4
>= +100

c5:
+1 x5
>= -0

c6:
+1 x6
>= +50

c7:
+1 x7
>= +100

c8:
+1 x8
>= -0

c9:
+1 x9
>= +50

c10:
+1 x10
>= +100

c11:
+1 x11
>= -0

c12:
+1 x12
>= +50

c13:
+1 x13
>= +100

c14:
+1 x14
>= -0

c15:
+1 x15
>= +50

c16:
+1 x16
>= +100

c17:
+1 x17
>= -0

c18:
+1 x18
>= +50

c19:
+1 x19
>= +100

c20:
+1 x20
>= -0

c21:
+1 x21
>= +50

c22:
+1 x22
>= +100

c23:
+1 x23
>= -0

c24:
+1 x24
>= +50

c25:
+1 x25
>= +100

c26:
+1 x26
>= -0

c27:
+1 x27
>= +50

c28:
+1 x28
>= +100

c29:
+1 x29
>= -0

c30:
+1 x30
>= +50

c31:
+1 x31
>= +100

c32:
+1 x32
>= -0

c33:
+1 x33
>= +50

c34:
+1 x34
>= +100

c35:
+1 x35
>= -0

c36:
+1 x36
>= +50

c37:
+1 x37
>= +100

c38:
+1 x38
>= -0

c39:
+1 x39
>= +50

c40:
+1 x40
>= +100

c41:
+1 x41
>= -0

c42:
+1 x42
>= +50

c43:
+1 x43
>= +100

c44:
+1 x44
>= -0

c45:
+1 x45
>= +50

c46:
+1 x46
>= +100

c47:
+1 x47
>= -0

c48:
+1 x48
>= +50

c49:
+1 x49
>= +100

c50:
+1 x50
>= -0

c51:
+1 x51
>= +50

c52:
+1 x52
>= +100

c53:
+1 x53
>= -0

c54:
+1 x54
>= +50

c55:
+1 x55
>= +100

c56:
+1 x56
>= -0

c57:
+1 x57
>= +50

c58:
+1 x58
>= +100

c59:
+1 x59
>= -0

c60:
+1 x60
>= +50

c61:
+1 x61
>= +100

c62:
+1 x62
>= -0

c63:
+1 x63
>= +50

c64:
+1 x64
>= +100

c65:
+1 x65
>= -0

c66:
+1 x66
>= +50

c67:
+1 x67
>= +100

c68:
+1 x68
>= -0

c69:
+1 x69
>= +50

c70:
+1 x70
>= +100

c71:
+1 x71
>= -0
c72:
+1 x0
<= +300

c73:
+1 x1
<= +400

c74:
+1 x2
<= -0

c75:
+1 x3
<= +300

c76:
+1 x4
<= +400

c77:
+1 x5
<= -0

c78:
+1 x6
<= +300

c79:
+1 x7
<= +400

c80:
+1 x8
<= -0

c81:
+1 x9
<= +300

c82:
+1 x10
<= +400

c83:
+1 x11
<= -0

c84:
+1 x12
<= +300

c85:
+1 x13
<= +400

c86:
+1 x14
<= -0

c87:
+1 x15
<= +300

c88:
+1 x16
<= +400

c89:
+1 x17
<= -0

c90:
+1 x18
<= +300

c91:
+1 x19
<= +400

c92:
+1 x20
<= +30

c93:
+1 x21
<= +300

c94:
+1 x22
<= +400

c95:
+1 x23
<= +90

c96:
+1 x24
<= +300

c97:
+1 x25
<= +400

c98:
+1 x26
<= +150

c99:
+1 x27
<= +300

c100:
+1 x28
<= +400

c101:
+1 x29
<= +210

c102:
+1 x30
<= +300

c103:
+1 x31
<= +400

c104:
+1 x32
<= +270

c105:
+1 x33
<= +300

c106:
+1 x34
<= +400

c107:
+1 x35
<= +300

c108:
+1 x36
<= +300

c109:
+1 x37
<= +400

c110:
+1 x38
<= +300

c111:
+1 x39
<= +300

c112:
+1 x40
<= +400

c113:
+1 x41
<= +270

c114:
+1 x42
<= +300

c115:
+1 x43
<= +400

c116:
+1 x44
<= +210

c117:
+1 x45
<= +300

c118:
+1 x46
<= +400

c119:
+1 x47
<= +150

c120:
+1 x48
<= +300

c121:
+1 x49
<= +400

c122:
+1 x50
<= +90

c123:
+1 x51
<= +300

c124:
+1 x52
<= +400

c125:
+1 x53
<= +30

c126:
+1 x54
<= +300

c127:
+1 x55
<= +400

c128:
+1 x56
<= -0

c129:
+1 x57
<= +300

c130:
+1 x58
<= +400

c131:
+1 x59
<= -0

c132:
+1 x60
<= +300

c133:
+1 x61
<= +400

c134:
+1 x62
<= -0

c135:
+1 x63
<= +300

c136:
+1 x64
<= +400

c137:
+1 x65
<= -0

c138:
+1 x66
<= +300

c139:
+1 x67
<= +400

c140:
+1 x68
<= -0

c141:
+1 x69
<= +300

c142:
+1 x70
<= +400

c143:
+1 x71
<= -0
c144:
+1 x72
>= -200

c145:
+1 x73
>= -200

c146:
+1 x74
>= -150

c147:
+1 x75
>= -200

c148:
+1 x76
>= -200

c149:
+1 x77
>= -150

c150:
+1 x78
>= -200

c151:
+1 x79
>= -200

c152:
+1 x80
>= -150

c153:
+1 x81
>= -200

c154:
+1 x82
>= -200

c155:
+1 x83
>= -150

c156:
+1 x84
>= -200

c157:
+1 x85
>= -200

c158:
+1 x86
>= -150

c159:
+1 x87
>= -200

c160:
+1 x88
>= -200

c161:
+1 x89
>= -150

c162:
+1 x90
>= -200

c163:
+1 x91
>= -200

c164:
+1 x92
>= -150

c165:
+1 x93
>= -200

c166:
+1 x94
>= -200

c167:
+1 x95
>= -150

c168:
+1 x96
>= -200

c169:
+1 x97
>= -200

c170:
+1 x98
>= -150

c171:
+1 x99
>= -200

c172:
+1 x100
>= -200

c173:
+1 x101
>= -150

c174:
+1 x102
>= -200

c175:
+1 x103
>= -200

c176:
+1 x104
>= -150

c177:
+1 x105
>= -200

c178:
+1 x106
>= -200

c179:
+1 x107
>= -150

c180:
+1 x108
>= -200

c181:
+1 x109
>= -200

c182:
+1 x110
>= -150

c183:
+1 x111
>= -200

c184:
+1 x112
>= -200

c185:
+1 x113
>= -150

c186:
+1 x114
>= -200

c187:
+1 x115
>= -200

c188:
+1 x116
>= -150

c189:
+1 x117
>= -200

c190:
+1 x118
>= -200

c191:
+1 x119
>= -150

c192:
+1 x120
>= -200

c193:
+1 x121
>= -200

c194:
+1 x122
>= -150

c195:
+1 x123
>= -200

c196:
+1 x124
>= -200

c197:
+1 x125
>= -150

c198:
+1 x126
>= -200

c199:
+1 x127
>= -200

c200:
+1 x128
>= -150

c201:
+1 x129
>= -200

c202:
+1 x130
>= -200

c203:
+1 x131
>= -150

c204:
+1 x132
>= -200

c205:
+1 x133
>= -200

c206:
+1 x134
>= -150

c207:
+1 x135
>= -200

c208:
+1 x136
>= -200

c209:
+1 x137
>= -150

c210:
+1 x138
>= -200

c211:
+1 x139
>= -200

c212:
+1 x140
>= -150

c213:
+1 x141
>= -200

c214:
+1 x142
>= -200

c215:
+1 x143
>= -150
c216:
+1 x72
<= +200

c217:
+1 x73
<= +200

c218:
+1 x74
<= +150

c219:
+1 x75
<= +200

c220:
+1 x76
<= +200

c221:
+1 x77
<= +150

c222:
+1 x78
<= +200

c223:
+1 x79
<= +200

c224:
+1 x80
<= +150

c225:
+1 x81
<= +200

c226:
+1 x82
<= +200

c227:
+1 x83
<= +150

c228:
+1 x84
<= +200

c229:
+1 x85
<= +200

c230:
+1 x86
<= +150

c231:
+1 x87
<= +200

c232:
+1 x88
<= +200

c233:
+1 x89
<= +150

c234:
+1 x90
<= +200

c235:
+1 x91
<= +200

c236:
+1 x92
<= +150

c237:
+1 x93
<= +200

c238:
+1 x94
<= +200

c239:
+1 x95
<= +150

c240:
+1 x96
<= +200

c241:
+1 x97
<= +200

c242:
+1 x98
<= +150

c243:
+1 x99
<= +200

c244:
+1 x100
<= +200

c245:
+1 x101
<= +150

c246:
+1 x102
<= +200

c247:
+1 x103
<= +200

c248:
+1 x104
<= +150

c249:
+1 x105
<= +200

c250:
+1 x106
<= +200

c251:
+1 x107
<= +150

c252:
+1 x108
<= +200

c253:
+1 x109
<= +200

c254:
+1 x110
<= +150

c255:
+1 x111
<= +200

c256:
+1 x112
<= +200

c257:
+1 x113
<= +150

c258:
+1 x114
<= +200

c259:
+1 x115
<= +200

c260:
+1 x116
<= +150

c261:
+1 x117
<= +200

c262:
+1 x118
<= +200

c263:
+1 x119
<= +150

c264:
+1 x120
<= +200

c265:
+1 x121
<= +200

c266:
+1 x122
<= +150

c267:
+1 x123
<= +200

c268:
+1 x124
<= +200

c269:
+1 x125
<= +150

c270:
+1 x126
<= +200

c271:
+1 x127
<= +200

c272:
+1 x128
<= +150

c273:
+1 x129
<= +200

c274:
+1 x130
<= +200

c275:
+1 x131
<= +150

c276:
+1 x132
<= +200

c277:
+1 x133
<= +200

c278:
+1 x134
<= +150

c279:
+1 x135
<= +200

c280:
+1 x136
<= +200

c281:
+1 x137
<= +150

c282:
+1 x138
<= +200

c283:
+1 x139
<= +200

c284:
+1 x140
<= +150

c285:
+1 x141
<= +200

c286:
+1 x142
<= +200

c287:
+1 x143
<= +150
c288:
+1 x0
-1 x72
+1 x74
= +500

c289:
+1 x3
-1 x75
+1 x77
= +500

c290:
+1 x6
-1 x78
+1 x80
= +500

c291:
+1 x9
-1 x81
+1 x83
= +500

c292:
+1 x12
-1 x84
+1 x86
= +500

c293:
+1 x15
-1 x87
+1 x89
= +500

c294:
+1 x18
-1 x90
+1 x92
= +500

c295:
+1 x21
-1 x93
+1 x95
= +500

c296:
+1 x24
-1 x96
+1 x98
= +500

c297:
+1 x27
-1 x99
+1 x101
= +500

c298:
+1 x30
-1 x102
+1 x104
= +500

c299:
+1 x33
-1 x105
+1 x107
= +500

c300:
+1 x36
-1 x108
+1 x110
= +500

c301:
+1 x39
-1 x111
+1 x113
= +500

c302:
+1 x42
-1 x114
+1 x116
= +500

c303:
+1 x45
-1 x117
+1 x119
= +500

c304:
+1 x48
-1 x120
+1 x122
= +500

c305:
+1 x51
-1 x123
+1 x125
= +500

c306:
+1 x54
-1 x126
+1 x128
= +500

c307:
+1 x57
-1 x129
+1 x131
= +500

c308:
+1 x60
-1 x132
+1 x134
= +500

c309:
+1 x63
-1 x135
+1 x137
= +500

c310:
+1 x66
-1 x138
+1 x140
= +500

c311:
+1 x69
-1 x141
+1 x143
= +500

c312:
+1 x1
+1 x72
-1 x73
= -0

c313:
+1 x4
+1 x75
-1 x76
= -0

c314:
+1 x7
+1 x78
-1 x79
= -0

c315:
+1 x10
+1 x81
-1 x82
= -0

c316:
+1 x13
+1 x84
-1 x85
= -0

c317:
+1 x16
+1 x87
-1 x88
= -0

c318:
+1 x19
+1 x90
-1 x91
= -0

c319:
+1 x22
+1 x93
-1 x94
= -0

c320:
+1 x25
+1 x96
-1 x97
= -0

c321:
+1 x28
+1 x99
-1 x100
= -0

c322:
+1 x31
+1 x102
-1 x103
= -0

c323:
+1 x34
+1 x105
-1 x106
= -0

c324:
+1 x37
+1 x108
-1 x109
= -0

c325:
+1 x40
+1 x111
-1 x112
= -0

c326:
+1 x43
+1 x114
-1 x115
= -0

c327:
+1 x46
+1 x117
-1 x118
= -0

c328:
+1 x49
+1 x120
-1 x121
= -0

c329:
+1 x52
+1 x123
-1 x124
= -0

c330:
+1 x55
+1 x126
-1 x127
= -0

c331:
+1 x58
+1 x129
-1 x130
= -0

c332:
+1 x61
+1 x132
-1 x133
= -0

c333:
+1 x64
+1 x135
-1 x136
= -0

c334:
+1 x67
+1 x138
-1 x139
= -0

c335:
+1 x70
+1 x141
-1 x142
= -0

c336:
+1 x2
+1 x73
-1 x74
= +100

c337:
+1 x5
+1 x76
-1 x77
= +100

c338:
+1 x8
+1 x79
-1 x80
= +100

c339:
+1 x11
+1 x82
-1 x83
= +100

c340:
+1 x14
+1 x85
-1 x86
= +120

c341:
+1 x17
+1 x88
-1 x89
= +120

c342:
+1 x20
+1 x91
-1 x92
= +150

c343:
+1 x23
+1 x94
-1 x95
= +180

c344:
+1 x26
+1 x97
-1 x98
= +200

c345:
+1 x29
+1 x100
-1 x101
= +200

c346:
+1 x32
+1 x103
-1 x104
= +200

c347:
+1 x35
+1 x106
-1 x107
= +200

c348:
+1 x38
+1 x109
-1 x110
= +180

c349:
+1 x41
+1 x112
-1 x113
= +180

c350:
+1 x44
+1 x115
-1 x116
= +180

c351:
+1 x47
+1 x118
-1 x119
= +200

c352:
+1 x50
+1 x121
-1 x122
= +200

c353:
+1 x53
+1 x124
-1 x125
= +200

c354:
+1 x56
+1 x127
-1 x128
= +200

c355:
+1 x59
+1 x130
-1 x131
= +200

c356:
+1 x62
+1 x133
-1 x134
= +200

c357:
+1 x65
+1 x136
-1 x137
= +200

c358:
+1 x68
+1 x139
-1 x140
= +150

c359:
+1 x71
+1 x142
-1 x143
= +120
c360:
+82.6446280992 x72
+82.6446280992 x73
+82.6446280992 x74
= -0

c361:
+82.6446280992 x75
+82.6446280992 x76
+82.6446280992 x77
= -0

c362:
+82.6446280992 x78
+82.6446280992 x79
+82.6446280992 x80
= -0

c363:
+82.6446280992 x81
+82.6446280992 x82
+82.6446280992 x83
= -0

c364:
+82.6446280992 x84
+82.6446280992 x85
+82.6446280992 x86
= -0

c365:
+82.6446280992 x87
+82.6446280992 x88
+82.6446280992 x89
= -0

c366:
+82.6446280992 x90
+82.6446280992 x91
+82.6446280992 x92
= -0

c367:
+82.6446280992 x93
+82.6446280992 x94
+82.6446280992 x95
= -0

c368:
+82.6446280992 x96
+82.6446280992 x97
+82.6446280992 x98
= -0

c369:
+82.6446280992 x99
+82.6446280992 x100
+82.6446280992 x101
= -0

c370:
+82.6446280992 x102
+82.6446280992 x103
+82.6446280992 x104
= -0

c371:
+82.6446280992 x105
+82.6446280992 x106
+82.6446280992 x107
= -0

c372:
+82.6446280992 x108
+82.6446280992 x109
+82.6446280992 x110
= -0

c373:
+82.6446280992 x111
+82.6446280992 x112
+82.6446280992 x113
= -0

c374:
+82.6446280992 x114
+82.6446280992 x115
+82.6446280992 x116
= -0

c375:
+82.6446280992 x117
+82.6446280992 x118
+82.6446280992 x119
= -0

c376:
+82.6446280992 x120
+82.6446280992 x121
+82.6446280992 x122
= -0

c377:
+82.6446280992 x123
+82.6446280992 x124
+82.6446280992 x125
= -0

c378:
+82.6446280992 x126
+82.6446280992 x127
+82.6446280992 x128
= -0

c379:
+82.6446280992 x129
+82.6446280992 x130
+82.6446280992 x131
= -0

c380:
+82.6446280992 x132
+82.6446280992 x133
+82.6446280992 x134
= -0

c381:
+82.6446280992 x135
+82.6446280992 x136
+82.6446280992 x137
= -0

c382:
+82.6446280992 x138
+82.6446280992 x139
+82.6446280992 x140
= -0

c383:
+82.6446280992 x141
+82.6446280992 x142
+82.6446280992 x143
= -0


bounds

-inf <= x0 <= +inf
-inf <= x1 <= +inf
-inf <= x2 <= +inf
-inf <= x3 <= +inf
-inf <= x4 <= +inf
-inf <= x5 <= +inf
-inf <= x6 <= +inf
-inf <= x7 <= +inf
-inf <= x8 <= +inf
-inf <= x9 <= +inf
-inf <= x10 <= +inf
-inf <= x11 <= +inf
-inf <= x12 <= +inf
-inf <= x13 <= +inf
-inf <= x14 <= +inf
-inf <= x15 <= +inf
-inf <= x16 <= +inf
-inf <= x17 <= +inf
-inf <= x18 <= +inf
-inf <= x19 <= +inf
-inf <= x20 <= +inf
-inf <= x21 <= +inf
-inf <= x22 <= +inf
-inf <= x23 <= +inf
-inf <= x24 <= +inf
-inf <= x25 <= +inf
-inf <= x26 <= +inf
-inf <= x27 <= +inf
-inf <= x28 <= +inf
-inf <= x29 <= +inf
-inf <= x30 <= +inf
-inf <= x31 <= +inf
-inf <= x32 <= +inf
-inf <= x33 <= +inf
-inf <= x34 <= +inf
-inf <= x35 <= +inf
-inf <= x36 <= +inf
-inf <= x37 <= +inf
-inf <= x38 <= +inf
-inf <= x39 <= +inf
-inf <= x40 <= +inf
-inf <= x41 <= +inf
-inf <= x42 <= +inf
-inf <= x43 <= +inf
-inf <= x44 <= +inf
-inf <= x45 <= +inf
-inf <= x46 <= +inf
-inf <= x47 <= +inf
-inf <= x48 <= +inf
-inf <= x49 <= +inf
-inf <= x50 <= +inf
-inf <= x51 <= +inf
-inf <= x52 <= +inf
-inf <= x53 <= +inf
-inf <= x54 <= +inf
-inf <= x55 <= +inf
-inf <= x56 <= +inf
-inf <= x57 <= +inf
-inf <= x58 <= +inf
-inf <= x59 <= +inf
-inf <= x60 <= +inf
-inf <= x61 <= +inf
-inf <= x62 <= +inf
-inf <= x63 <= +inf
-inf <= x64 <= +inf
-inf <= x65 <= +inf
-inf <= x66 <= +inf
-inf <= x67 <= +inf
-inf <= x68 <= +inf
-inf <= x69 <= +inf
-inf <= x70 <= +inf
-inf <= x71 <= +inf
-inf <= x72 <= +inf
-inf <= x73 <= +inf
-inf <= x74 <= +inf
-inf <= x75 <= +inf
-inf <= x76 <= +inf
-inf <= x77 <= +inf
-inf <= x78 <= +inf
-inf <= x79 <= +inf
-inf <= x80 <= +inf
-inf <= x81 <= +inf
-inf <= x82 <= +inf
-inf <= x83 <= +inf
-inf <= x84 <= +inf
-inf <= x85 <= +inf
-inf <= x86 <= +inf
-inf <= x87 <= +inf
-inf <= x88 <= +inf
-inf <= x89 <= +inf
-inf <= x90 <= +inf
-inf <= x91 <= +inf
-inf <= x92 <= +inf
-inf <= x93 <= +inf
-inf <= x94 <= +inf
-inf <= x95 <= +inf
-inf <= x96 <= +inf
-inf <= x97 <= +inf
-inf <= x98 <= +inf
-inf <= x99 <= +inf
-inf <= x100 <= +inf
-inf <= x101 <= +inf
-inf <= x102 <= +inf
-inf <= x103 <= +inf
-inf <= x104 <= +inf
-inf <= x105 <= +inf
-inf <= x106 <= +inf
-inf <= x107 <= +inf
-inf <= x108 <= +inf
-inf <= x109 <= +inf
-inf <= x110 <= +inf
-inf <= x111 <= +inf
-inf <= x112 <= +inf
-inf <= x113 <= +inf
-inf <= x114 <= +inf
-inf <= x115 <= +inf
-inf <= x116 <= +inf
-inf <= x117 <= +inf
-inf <= x118 <= +inf
-inf <= x119 <= +inf
-inf <= x120 <= +inf
-inf <= x121 <= +inf
-inf <= x122 <= +inf
-inf <= x123 <= +inf
-inf <= x124 <= +inf
-inf <= x125 <= +inf
-inf <= x126 <= +inf
-inf <= x127 <= +inf
-inf <= x128 <= +inf
-inf <= x129 <= +inf
-inf <= x130 <= +inf
-inf <= x131 <= +inf
-inf <= x132 <= +inf
-inf <= x133 <= +inf
-inf <= x134 <= +inf
-inf <= x135 <= +inf
-inf <= x136 <= +inf
-inf <= x137 <= +inf
-inf <= x138 <= +inf
-inf <= x139 <= +inf
-inf <= x140 <= +inf
-inf <= x141 <= +inf
-inf <= x142 <= +inf
-inf <= x143 <= +inf
end
